(set-logic QF_NRA)
(set-info :source |
From termination analysis of term rewriting.

Submitted by Harald Roman Zankl <Harald.Zankl@uibk.ac.at>

|)
(set-info :smt-lib-version 2.0)
(set-info :category "industrial")
(set-info :status unknown)
(declare-fun x6 () Real)
(declare-fun x13 () Real)
(declare-fun x3 () Real)
(declare-fun x10 () Real)
(declare-fun x0 () Real)
(declare-fun x7 () Real)
(declare-fun x14 () Real)
(declare-fun x4 () Real)
(declare-fun x11 () Real)
(declare-fun x1 () Real)
(declare-fun x8 () Real)
(declare-fun x5 () Real)
(declare-fun x12 () Real)
(declare-fun x2 () Real)
(declare-fun x9 () Real)
(declare-fun x16 () Real)
(assert (>= x6 0))
(assert (>= x13 0))
(assert (>= x3 0))
(assert (>= x10 0))
(assert (>= x0 0))
(assert (>= x7 0))
(assert (>= x14 0))
(assert (>= x4 0))
(assert (>= x11 0))
(assert (>= x1 0))
(assert (>= x8 0))
(assert (>= x5 0))
(assert (>= x12 0))
(assert (>= x2 0))
(assert (>= x9 0))
(assert (>= x16 0))
(assert (let ((?v_0 (+ (+ x0 (* x1 x2)) (* x3 x4))) (?v_1 (+ (+ x0 (* x1 x8)) (* x3 x8)))) (let ((?v_6 (and (and (and (> ?v_0 x6) (>= ?v_0 x6)) (>= x5 x7)) (and (and (> ?v_0 ?v_1) (>= ?v_0 ?v_1)) (>= x5 (+ (+ (* x1 x9) (* x3 x9)) x5))))) (?v_3 (+ (+ x10 (* x11 x8)) (* x12 x8))) (?v_2 (+ (+ x10 (* x11 x2)) (* x12 x4))) (?v_4 (+ x8 (* x9 x2))) (?v_5 (+ x8 (* x9 x14)))) (and (and (and (and ?v_6 (and (and (> ?v_2 ?v_3) (>= ?v_2 ?v_3)) (>= x13 (+ (+ (* x11 x9) (* x12 x9)) x13)))) (and (> ?v_4 x2) (>= ?v_4 x2))) (and (and (> ?v_5 0) (>= ?v_5 0)) (>= (* x9 x16) 1))) ?v_6))))
(check-sat)
(exit)
